p cnf 200 1110
-101 -47 0
-101 -32 0
-101 50 0
-101 10 0
-101 16 0
-101 43 0
-101 20 0
-101 83 0
-101 57 0
-101 87 0
101 47 32 -50 -10 -16 -43 -20 -83 -57 -87 0
-102 -99 0
-102 -71 0
-102 44 0
-102 -38 0
-102 -30 0
-102 -48 0
-102 2 0
-102 -36 0
-102 -22 0
-102 17 0
102 99 71 -44 38 30 48 -2 36 22 -17 0
-103 68 0
-103 16 0
-103 -49 0
-103 53 0
-103 -98 0
-103 -48 0
-103 2 0
-103 95 0
-103 -35 0
-103 -12 0
103 -68 -16 49 -53 98 48 -2 -95 35 12 0
-104 -80 0
-104 -51 0
-104 50 0
-104 86 0
-104 38 0
-104 -91 0
-104 5 0
-104 -92 0
-104 49 0
-104 11 0
104 80 51 -50 -86 -38 91 -5 92 -49 -11 0
-105 5 0
-105 -12 0
-105 -85 0
-105 23 0
-105 -60 0
-105 -10 0
-105 69 0
-105 -4 0
-105 89 0
-105 74 0
105 -5 12 85 -23 60 10 -69 4 -89 -74 0
-106 -75 0
-106 -11 0
-106 4 0
-106 -31 0
-106 42 0
-106 -20 0
-106 3 0
-106 -80 0
-106 -14 0
-106 15 0
106 75 11 -4 31 -42 20 -3 80 14 -15 0
-107 65 0
-107 -18 0
-107 -31 0
-107 78 0
-107 -46 0
-107 -63 0
-107 -81 0
-107 -32 0
-107 35 0
-107 88 0
107 -65 18 31 -78 46 63 81 32 -35 -88 0
-108 -36 0
-108 68 0
-108 58 0
-108 15 0
-108 18 0
-108 3 0
-108 -41 0
-108 -9 0
-108 24 0
-108 -81 0
108 36 -68 -58 -15 -18 -3 41 9 -24 81 0
-109 14 0
-109 73 0
-109 -12 0
-109 -44 0
-109 33 0
-109 -95 0
-109 17 0
-109 10 0
-109 25 0
-109 18 0
109 -14 -73 12 44 -33 95 -17 -10 -25 -18 0
-110 -88 0
-110 43 0
-110 -64 0
-110 -38 0
-110 -17 0
-110 13 0
-110 55 0
-110 -89 0
-110 59 0
-110 50 0
110 88 -43 64 38 17 -13 -55 89 -59 -50 0
101 102 103 104 105 106 107 108 109 110 0
-111 -39 0
-111 -34 0
-111 -78 0
-111 91 0
-111 -85 0
-111 -45 0
-111 57 0
-111 -36 0
-111 -24 0
-111 -71 0
111 39 34 78 -91 85 45 -57 36 24 71 0
-112 42 0
-112 -45 0
-112 -46 0
-112 -25 0
-112 -70 0
-112 -88 0
-112 -47 0
-112 89 0
-112 -11 0
-112 79 0
112 -42 45 46 25 70 88 47 -89 11 -79 0
-113 38 0
-113 -19 0
-113 4 0
-113 46 0
-113 -62 0
-113 7 0
-113 -59 0
-113 -90 0
-113 30 0
-113 -64 0
113 -38 19 -4 -46 62 -7 59 90 -30 64 0
-114 -50 0
-114 -7 0
-114 -60 0
-114 -27 0
-114 22 0
-114 -67 0
-114 -93 0
-114 49 0
-114 -2 0
-114 -92 0
114 50 7 60 27 -22 67 93 -49 2 92 0
-115 7 0
-115 16 0
-115 -97 0
-115 33 0
-115 13 0
-115 -65 0
-115 -95 0
-115 -85 0
-115 -30 0
-115 87 0
115 -7 -16 97 -33 -13 65 95 85 30 -87 0
-116 -55 0
-116 -37 0
-116 10 0
-116 -78 0
-116 39 0
-116 -6 0
-116 71 0
-116 -69 0
-116 -58 0
-116 -76 0
116 55 37 -10 78 -39 6 -71 69 58 76 0
-117 33 0
-117 -40 0
-117 -44 0
-117 80 0
-117 10 0
-117 -45 0
-117 -62 0
-117 -87 0
-117 -18 0
-117 -67 0
117 -33 40 44 -80 -10 45 62 87 18 67 0
-118 -31 0
-118 64 0
-118 95 0
-118 -86 0
-118 -43 0
-118 45 0
-118 89 0
-118 80 0
-118 23 0
-118 50 0
118 31 -64 -95 86 43 -45 -89 -80 -23 -50 0
-119 95 0
-119 -63 0
-119 34 0
-119 -59 0
-119 88 0
-119 28 0
-119 25 0
-119 -66 0
-119 90 0
-119 24 0
119 -95 63 -34 59 -88 -28 -25 66 -90 -24 0
-120 -39 0
-120 -83 0
-120 -78 0
-120 54 0
-120 62 0
-120 77 0
-120 -1 0
-120 23 0
-120 56 0
-120 35 0
120 39 83 78 -54 -62 -77 1 -23 -56 -35 0
111 112 113 114 115 116 117 118 119 120 0
-121 52 0
-121 63 0
-121 70 0
-121 42 0
-121 -18 0
-121 -90 0
-121 -25 0
-121 68 0
-121 -99 0
-121 20 0
121 -52 -63 -70 -42 18 90 25 -68 99 -20 0
-122 -32 0
-122 70 0
-122 -34 0
-122 -90 0
-122 -61 0
-122 86 0
-122 -25 0
-122 19 0
-122 -37 0
-122 -79 0
122 32 -70 34 90 61 -86 25 -19 37 79 0
-123 65 0
-123 -61 0
-123 -3 0
-123 84 0
-123 64 0
-123 42 0
-123 -41 0
-123 54 0
-123 -25 0
-123 -13 0
123 -65 61 3 -84 -64 -42 41 -54 25 13 0
-124 -1 0
-124 -66 0
-124 31 0
-124 29 0
-124 -26 0
-124 -76 0
-124 -46 0
-124 -53 0
-124 -8 0
-124 48 0
124 1 66 -31 -29 26 76 46 53 8 -48 0
-125 92 0
-125 -61 0
-125 98 0
-125 -76 0
-125 73 0
-125 -9 0
-125 55 0
-125 -63 0
-125 26 0
-125 33 0
125 -92 61 -98 76 -73 9 -55 63 -26 -33 0
-126 12 0
-126 67 0
-126 -21 0
-126 35 0
-126 79 0
-126 -39 0
-126 -3 0
-126 -60 0
-126 -31 0
-126 -10 0
126 -12 -67 21 -35 -79 39 3 60 31 10 0
-127 17 0
-127 -31 0
-127 49 0
-127 -22 0
-127 27 0
-127 -72 0
-127 -84 0
-127 -69 0
-127 67 0
-127 9 0
127 -17 31 -49 22 -27 72 84 69 -67 -9 0
-128 -97 0
-128 67 0
-128 -10 0
-128 36 0
-128 -99 0
-128 -1 0
-128 57 0
-128 -87 0
-128 100 0
-128 -71 0
128 97 -67 10 -36 99 1 -57 87 -100 71 0
-129 53 0
-129 18 0
-129 42 0
-129 -91 0
-129 -55 0
-129 35 0
-129 -30 0
-129 -79 0
-129 8 0
-129 -12 0
129 -53 -18 -42 91 55 -35 30 79 -8 12 0
-130 -23 0
-130 -22 0
-130 93 0
-130 48 0
-130 76 0
-130 -18 0
-130 72 0
-130 74 0
-130 -45 0
-130 -39 0
130 23 22 -93 -48 -76 18 -72 -74 45 39 0
121 122 123 124 125 126 127 128 129 130 0
-131 78 0
-131 95 0
-131 -11 0
-131 -68 0
-131 -58 0
-131 71 0
-131 13 0
-131 -42 0
-131 -85 0
-131 49 0
131 -78 -95 11 68 58 -71 -13 42 85 -49 0
-132 8 0
-132 -32 0
-132 58 0
-132 -84 0
-132 34 0
-132 -81 0
-132 85 0
-132 -72 0
-132 -25 0
-132 75 0
132 -8 32 -58 84 -34 81 -85 72 25 -75 0
-133 32 0
-133 -64 0
-133 35 0
-133 27 0
-133 -30 0
-133 -31 0
-133 -26 0
-133 88 0
-133 78 0
-133 94 0
133 -32 64 -35 -27 30 31 26 -88 -78 -94 0
-134 73 0
-134 47 0
-134 96 0
-134 -59 0
-134 -80 0
-134 -89 0
-134 34 0
-134 -87 0
-134 35 0
-134 83 0
134 -73 -47 -96 59 80 89 -34 87 -35 -83 0
-135 -20 0
-135 -60 0
-135 -11 0
-135 16 0
-135 17 0
-135 91 0
-135 -19 0
-135 54 0
-135 -75 0
-135 -31 0
135 20 60 11 -16 -17 -91 19 -54 75 31 0
-136 75 0
-136 -80 0
-136 14 0
-136 -8 0
-136 -100 0
-136 -89 0
-136 53 0
-136 92 0
-136 -50 0
-136 44 0
136 -75 80 -14 8 100 89 -53 -92 50 -44 0
-137 -3 0
-137 37 0
-137 -72 0
-137 90 0
-137 -35 0
-137 -25 0
-137 84 0
-137 66 0
-137 -99 0
-137 12 0
137 3 -37 72 -90 35 25 -84 -66 99 -12 0
-138 35 0
-138 7 0
-138 89 0
-138 1 0
-138 -100 0
-138 -16 0
-138 24 0
-138 52 0
-138 -50 0
-138 -54 0
138 -35 -7 -89 -1 100 16 -24 -52 50 54 0
-139 59 0
-139 60 0
-139 -77 0
-139 -2 0
-139 -42 0
-139 54 0
-139 -44 0
-139 16 0
-139 -50 0
-139 -52 0
139 -59 -60 77 2 42 -54 44 -16 50 52 0
-140 -90 0
-140 24 0
-140 -1 0
-140 11 0
-140 -99 0
-140 40 0
-140 95 0
-140 -21 0
-140 35 0
-140 -27 0
140 90 -24 1 -11 99 -40 -95 21 -35 27 0
131 132 133 134 135 136 137 138 139 140 0
-141 -58 0
-141 -7 0
-141 36 0
-141 59 0
-141 -2 0
-141 -11 0
-141 -19 0
-141 -38 0
-141 -98 0
-141 91 0
141 58 7 -36 -59 2 11 19 38 98 -91 0
-142 -35 0
-142 -83 0
-142 86 0
-142 -40 0
-142 -17 0
-142 -62 0
-142 -7 0
-142 -89 0
-142 74 0
-142 -9 0
142 35 83 -86 40 17 62 7 89 -74 9 0
-143 82 0
-143 -78 0
-143 -68 0
-143 96 0
-143 85 0
-143 -37 0
-143 -77 0
-143 -50 0
-143 -81 0
-143 -57 0
143 -82 78 68 -96 -85 37 77 50 81 57 0
-144 -84 0
-144 46 0
-144 -98 0
-144 -85 0
-144 9 0
-144 -11 0
-144 33 0
-144 -57 0
-144 -65 0
-144 17 0
144 84 -46 98 85 -9 11 -33 57 65 -17 0
-145 48 0
-145 81 0
-145 99 0
-145 -83 0
-145 -32 0
-145 79 0
-145 47 0
-145 -7 0
-145 57 0
-145 20 0
145 -48 -81 -99 83 32 -79 -47 7 -57 -20 0
-146 54 0
-146 -99 0
-146 -73 0
-146 3 0
-146 -96 0
-146 15 0
-146 78 0
-146 -69 0
-146 28 0
-146 84 0
146 -54 99 73 -3 96 -15 -78 69 -28 -84 0
-147 11 0
-147 63 0
-147 31 0
-147 86 0
-147 -62 0
-147 -70 0
-147 61 0
-147 -79 0
-147 -36 0
-147 -77 0
147 -11 -63 -31 -86 62 70 -61 79 36 77 0
-148 94 0
-148 -5 0
-148 11 0
-148 17 0
-148 -1 0
-148 55 0
-148 42 0
-148 -84 0
-148 -16 0
-148 -40 0
148 -94 5 -11 -17 1 -55 -42 84 16 40 0
-149 -81 0
-149 -98 0
-149 6 0
-149 -49 0
-149 -22 0
-149 -23 0
-149 -31 0
-149 43 0
-149 7 0
-149 -10 0
149 81 98 -6 49 22 23 31 -43 -7 10 0
-150 47 0
-150 18 0
-150 -22 0
-150 39 0
-150 -38 0
-150 11 0
-150 60 0
-150 -49 0
-150 76 0
-150 -31 0
150 -47 -18 22 -39 38 -11 -60 49 -76 31 0
141 142 143 144 145 146 147 148 149 150 0
-151 65 0
-151 41 0
-151 7 0
-151 -60 0
-151 99 0
-151 74 0
-151 -72 0
-151 -93 0
-151 -23 0
-151 -52 0
151 -65 -41 -7 60 -99 -74 72 93 23 52 0
-152 -85 0
-152 65 0
-152 26 0
-152 -55 0
-152 -5 0
-152 -76 0
-152 74 0
-152 11 0
-152 37 0
-152 -46 0
152 85 -65 -26 55 5 76 -74 -11 -37 46 0
-153 28 0
-153 -71 0
-153 4 0
-153 -8 0
-153 -93 0
-153 11 0
-153 -30 0
-153 99 0
-153 45 0
-153 89 0
153 -28 71 -4 8 93 -11 30 -99 -45 -89 0
-154 -37 0
-154 -99 0
-154 34 0
-154 -42 0
-154 -38 0
-154 93 0
-154 45 0
-154 -94 0
-154 -84 0
-154 68 0
154 37 99 -34 42 38 -93 -45 94 84 -68 0
-155 100 0
-155 39 0
-155 -13 0
-155 -92 0
-155 30 0
-155 46 0
-155 -71 0
-155 -54 0
-155 -5 0
-155 2 0
155 -100 -39 13 92 -30 -46 71 54 5 -2 0
-156 -84 0
-156 -56 0
-156 11 0
-156 -66 0
-156 -29 0
-156 -99 0
-156 96 0
-156 55 0
-156 -34 0
-156 -27 0
156 84 56 -11 66 29 99 -96 -55 34 27 0
-157 21 0
-157 74 0
-157 -76 0
-157 -9 0
-157 -96 0
-157 -82 0
-157 -37 0
-157 85 0
-157 41 0
-157 -68 0
157 -21 -74 76 9 96 82 37 -85 -41 68 0
-158 -27 0
-158 71 0
-158 -58 0
-158 73 0
-158 -57 0
-158 14 0
-158 -83 0
-158 47 0
-158 -91 0
-158 8 0
158 27 -71 58 -73 57 -14 83 -47 91 -8 0
-159 34 0
-159 -43 0
-159 -10 0
-159 -75 0
-159 67 0
-159 -95 0
-159 -18 0
-159 58 0
-159 57 0
-159 -97 0
159 -34 43 10 75 -67 95 18 -58 -57 97 0
-160 9 0
-160 40 0
-160 67 0
-160 30 0
-160 50 0
-160 75 0
-160 47 0
-160 -8 0
-160 -43 0
-160 97 0
160 -9 -40 -67 -30 -50 -75 -47 8 43 -97 0
151 152 153 154 155 156 157 158 159 160 0
-161 -30 0
-161 -94 0
-161 100 0
-161 -4 0
-161 -69 0
-161 61 0
-161 45 0
-161 11 0
-161 47 0
-161 46 0
161 30 94 -100 4 69 -61 -45 -11 -47 -46 0
-162 -30 0
-162 -26 0
-162 -4 0
-162 72 0
-162 -91 0
-162 -3 0
-162 -92 0
-162 15 0
-162 -76 0
-162 97 0
162 30 26 4 -72 91 3 92 -15 76 -97 0
-163 92 0
-163 75 0
-163 -85 0
-163 16 0
-163 -73 0
-163 -87 0
-163 77 0
-163 23 0
-163 38 0
-163 -50 0
163 -92 -75 85 -16 73 87 -77 -23 -38 50 0
-164 22 0
-164 -24 0
-164 -72 0
-164 58 0
-164 83 0
-164 -56 0
-164 -60 0
-164 87 0
-164 -68 0
-164 -6 0
164 -22 24 72 -58 -83 56 60 -87 68 6 0
-165 -13 0
-165 31 0
-165 -50 0
-165 80 0
-165 -53 0
-165 29 0
-165 -28 0
-165 -49 0
-165 36 0
-165 -76 0
165 13 -31 50 -80 53 -29 28 49 -36 76 0
-166 -58 0
-166 76 0
-166 -17 0
-166 88 0
-166 1 0
-166 -31 0
-166 54 0
-166 -85 0
-166 -60 0
-166 -44 0
166 58 -76 17 -88 -1 31 -54 85 60 44 0
-167 95 0
-167 -78 0
-167 -56 0
-167 -19 0
-167 83 0
-167 -51 0
-167 61 0
-167 1 0
-167 41 0
-167 -23 0
167 -95 78 56 19 -83 51 -61 -1 -41 23 0
-168 38 0
-168 -33 0
-168 -36 0
-168 54 0
-168 24 0
-168 -15 0
-168 -27 0
-168 83 0
-168 -48 0
-168 -64 0
168 -38 33 36 -54 -24 15 27 -83 48 64 0
-169 9 0
-169 -35 0
-169 -95 0
-169 -34 0
-169 54 0
-169 -64 0
-169 -28 0
-169 62 0
-169 56 0
-169 -98 0
169 -9 35 95 34 -54 64 28 -62 -56 98 0
-170 94 0
-170 -80 0
-170 82 0
-170 -64 0
-170 18 0
-170 -1 0
-170 -19 0
-170 43 0
-170 46 0
-170 73 0
170 -94 80 -82 64 -18 1 19 -43 -46 -73 0
161 162 163 164 165 166 167 168 169 170 0
-171 -43 0
-171 97 0
-171 67 0
-171 -61 0
-171 -32 0
-171 -8 0
-171 86 0
-171 41 0
-171 -3 0
-171 -24 0
171 43 -97 -67 61 32 8 -86 -41 3 24 0
-172 -90 0
-172 30 0
-172 -52 0
-172 -4 0
-172 -84 0
-172 81 0
-172 1 0
-172 -21 0
-172 35 0
-172 9 0
172 90 -30 52 4 84 -81 -1 21 -35 -9 0
-173 -14 0
-173 -56 0
-173 -19 0
-173 -49 0
-173 -10 0
-173 -4 0
-173 -26 0
-173 -23 0
-173 -68 0
-173 -17 0
173 14 56 19 49 10 4 26 23 68 17 0
-174 18 0
-174 30 0
-174 34 0
-174 46 0
-174 -80 0
-174 44 0
-174 82 0
-174 -95 0
-174 -99 0
-174 72 0
174 -18 -30 -34 -46 80 -44 -82 95 99 -72 0
-175 83 0
-175 -39 0
-175 92 0
-175 77 0
-175 -84 0
-175 -63 0
-175 -79 0
-175 -52 0
-175 -80 0
-175 -69 0
175 -83 39 -92 -77 84 63 79 52 80 69 0
-176 -49 0
-176 73 0
-176 51 0
-176 97 0
-176 -100 0
-176 62 0
-176 39 0
-176 58 0
-176 98 0
-176 -54 0
176 49 -73 -51 -97 100 -62 -39 -58 -98 54 0
-177 -87 0
-177 9 0
-177 53 0
-177 -43 0
-177 3 0
-177 -97 0
-177 -63 0
-177 -76 0
-177 -16 0
-177 -37 0
177 87 -9 -53 43 -3 97 63 76 16 37 0
-178 -3 0
-178 71 0
-178 -24 0
-178 -32 0
-178 -61 0
-178 91 0
-178 -37 0
-178 -48 0
-178 -82 0
-178 31 0
178 3 -71 24 32 61 -91 37 48 82 -31 0
-179 81 0
-179 46 0
-179 -30 0
-179 -97 0
-179 -4 0
-179 67 0
-179 71 0
-179 -7 0
-179 57 0
-179 82 0
179 -81 -46 30 97 4 -67 -71 7 -57 -82 0
-180 72 0
-180 -49 0
-180 98 0
-180 99 0
-180 -23 0
-180 -40 0
-180 100 0
-180 33 0
-180 1 0
-180 -31 0
180 -72 49 -98 -99 23 40 -100 -33 -1 31 0
171 172 173 174 175 176 177 178 179 180 0
-181 82 0
-181 100 0
-181 44 0
-181 -48 0
-181 8 0
-181 87 0
-181 3 0
-181 -88 0
-181 23 0
-181 52 0
181 -82 -100 -44 48 -8 -87 -3 88 -23 -52 0
-182 -60 0
-182 100 0
-182 -3 0
-182 71 0
-182 -79 0
-182 -36 0
-182 -26 0
-182 54 0
-182 45 0
-182 -97 0
182 60 -100 3 -71 79 36 26 -54 -45 97 0
-183 -56 0
-183 82 0
-183 12 0
-183 -11 0
-183 27 0
-183 21 0
-183 66 0
-183 95 0
-183 51 0
-183 -84 0
183 56 -82 -12 11 -27 -21 -66 -95 -51 84 0
-184 -62 0
-184 50 0
-184 -67 0
-184 81 0
-184 -37 0
-184 -56 0
-184 -57 0
-184 34 0
-184 -35 0
-184 61 0
184 62 -50 67 -81 37 56 57 -34 35 -61 0
-185 74 0
-185 53 0
-185 -87 0
-185 30 0
-185 -90 0
-185 93 0
-185 61 0
-185 -89 0
-185 20 0
-185 -99 0
185 -74 -53 87 -30 90 -93 -61 89 -20 99 0
-186 -11 0
-186 80 0
-186 -68 0
-186 -13 0
-186 -91 0
-186 -66 0
-186 6 0
-186 -96 0
-186 2 0
-186 86 0
186 11 -80 68 13 91 66 -6 96 -2 -86 0
-187 -49 0
-187 -75 0
-187 80 0
-187 -1 0
-187 -13 0
-187 -65 0
-187 -45 0
-187 -7 0
-187 19 0
-187 -63 0
187 49 75 -80 1 13 65 45 7 -19 63 0
-188 25 0
-188 82 0
-188 5 0
-188 -55 0
-188 17 0
-188 81 0
-188 87 0
-188 66 0
-188 67 0
-188 -54 0
188 -25 -82 -5 55 -17 -81 -87 -66 -67 54 0
-189 -98 0
-189 -93 0
-189 -13 0
-189 44 0
-189 -100 0
-189 99 0
-189 85 0
-189 -9 0
-189 -46 0
-189 21 0
189 98 93 13 -44 100 -99 -85 9 46 -21 0
-190 -70 0
-190 -69 0
-190 -44 0
-190 53 0
-190 -5 0
-190 -20 0
-190 92 0
-190 31 0
-190 -45 0
-190 15 0
190 70 69 44 -53 5 20 -92 -31 45 -15 0
181 182 183 184 185 186 187 188 189 190 0
-191 68 0
-191 74 0
-191 27 0
-191 51 0
-191 -50 0
-191 3 0
-191 -63 0
-191 -25 0
-191 1 0
-191 90 0
191 -68 -74 -27 -51 50 -3 63 25 -1 -90 0
-192 24 0
-192 -85 0
-192 48 0
-192 53 0
-192 31 0
-192 -60 0
-192 -83 0
-192 72 0
-192 27 0
-192 63 0
192 -24 85 -48 -53 -31 60 83 -72 -27 -63 0
-193 -88 0
-193 -51 0
-193 52 0
-193 -49 0
-193 -59 0
-193 81 0
-193 70 0
-193 92 0
-193 99 0
-193 -46 0
193 88 51 -52 49 59 -81 -70 -92 -99 46 0
-194 17 0
-194 87 0
-194 -1 0
-194 66 0
-194 10 0
-194 52 0
-194 -79 0
-194 -84 0
-194 -93 0
-194 -43 0
194 -17 -87 1 -66 -10 -52 79 84 93 43 0
-195 3 0
-195 -27 0
-195 -49 0
-195 65 0
-195 19 0
-195 76 0
-195 79 0
-195 46 0
-195 71 0
-195 81 0
195 -3 27 49 -65 -19 -76 -79 -46 -71 -81 0
-196 6 0
-196 -18 0
-196 90 0
-196 -14 0
-196 -15 0
-196 -7 0
-196 47 0
-196 48 0
-196 -73 0
-196 -13 0
196 -6 18 -90 14 15 7 -47 -48 73 13 0
-197 22 0
-197 -80 0
-197 -50 0
-197 -40 0
-197 -44 0
-197 12 0
-197 -93 0
-197 98 0
-197 -2 0
-197 78 0
197 -22 80 50 40 44 -12 93 -98 2 -78 0
-198 10 0
-198 33 0
-198 -2 0
-198 47 0
-198 12 0
-198 -5 0
-198 -27 0
-198 93 0
-198 -89 0
-198 -59 0
198 -10 -33 2 -47 -12 5 27 -93 89 59 0
-199 -36 0
-199 -32 0
-199 -40 0
-199 6 0
-199 26 0
-199 100 0
-199 25 0
-199 34 0
-199 89 0
-199 73 0
199 36 32 40 -6 -26 -100 -25 -34 -89 -73 0
-200 76 0
-200 -15 0
-200 62 0
-200 -45 0
-200 -99 0
-200 6 0
-200 44 0
-200 -89 0
-200 27 0
-200 92 0
200 -76 15 -62 45 99 -6 -44 89 -27 -92 0
191 192 193 194 195 196 197 198 199 200 0
